generation,value,overweight
1,10404,4914
2,5746,3016
3,6020,874
4,5895,541
5,6207,7
6,6716,0
7,7416,0
8,7626,0
9,7706,0
10,7706,0
11,7985,4
12,7985,4
13,7985,4
14,7985,4
15,7985,4
16,7985,4
17,7985,4
18,8275,0
19,8275,0
20,8275,0
21,8275,0
22,8275,0
23,8373,0
24,8482,6
25,8482,6
26,8482,6
27,8482,6
28,8482,6
29,8482,6
30,8482,6
31,8482,6
32,8482,6
33,8482,6
34,8482,6
35,8482,6
36,8482,6
37,8482,6
38,8482,6
39,8482,6
40,8482,6
41,8482,6
42,8482,6
43,8482,6
44,8482,6
45,8482,6
46,8482,6
47,8482,6
48,8482,6
49,8482,6
50,8482,6
